benchmarks_CP/INST_49x49/50/inst49x49_50_73.dzn
S=7;
start=[|
-1,	-1,	8,	-1,	32,	-1,	49,	-1,	-1,	5,	-1,	-1,	41,	38,	-1,	46,	-1,	-1,	26,	-1,	16,	18,	45,	-1,	-1,	-1,	2,	4,	37,	17,	39,	19,	35,	-1,	21,	11,	44,	-1,	-1,	25,	-1,	-1,	24,	28,	20,	-1,	29,	-1,	33|
-1,	21,	-1,	39,	16,	28,	41,	-1,	26,	19,	-1,	-1,	-1,	49,	23,	-1,	36,	-1,	-1,	17,	33,	46,	-1,	29,	27,	-1,	-1,	24,	-1,	31,	45,	43,	-1,	-1,	-1,	-1,	-1,	42,	18,	22,	2,	-1,	25,	-1,	5,	-1,	-1,	11,	-1|
26,	-1,	-1,	6,	-1,	-1,	45,	18,	25,	46,	14,	44,	-1,	17,	-1,	-1,	42,	-1,	-1,	39,	34,	-1,	38,	-1,	-1,	35,	49,	36,	-1,	-1,	28,	-1,	22,	-1,	1,	20,	-1,	-1,	-1,	31,	15,	40,	-1,	30,	12,	-1,	16,	32,	-1|
37,	-1,	47,	42,	5,	-1,	-1,	-1,	-1,	48,	31,	-1,	-1,	-1,	38,	-1,	-1,	-1,	2,	-1,	28,	-1,	-1,	-1,	-1,	-1,	-1,	9,	14,	27,	10,	-1,	33,	-1,	7,	-1,	-1,	39,	6,	1,	35,	8,	-1,	36,	17,	45,	19,	49,	-1|
-1,	34,	30,	-1,	35,	-1,	19,	39,	-1,	-1,	-1,	4,	-1,	21,	6,	-1,	27,	-1,	-1,	49,	-1,	40,	-1,	-1,	-1,	-1,	23,	1,	-1,	18,	38,	29,	44,	-1,	15,	3,	-1,	48,	-1,	-1,	-1,	7,	14,	-1,	8,	-1,	46,	-1,	42|
-1,	-1,	-1,	17,	-1,	-1,	-1,	-1,	-1,	2,	29,	1,	-1,	40,	37,	44,	18,	-1,	32,	45,	-1,	41,	20,	39,	-1,	19,	28,	-1,	-1,	-1,	-1,	-1,	-1,	-1,	30,	34,	-1,	24,	23,	16,	-1,	46,	-1,	-1,	-1,	10,	-1,	22,	7|
-1,	-1,	-1,	18,	40,	-1,	46,	-1,	-1,	28,	37,	13,	7,	27,	-1,	8,	1,	41,	-1,	-1,	-1,	-1,	44,	-1,	43,	22,	-1,	-1,	32,	-1,	16,	36,	26,	-1,	24,	9,	33,	10,	-1,	5,	-1,	49,	2,	-1,	-1,	38,	-1,	-1,	-1|
34,	-1,	27,	24,	-1,	-1,	14,	-1,	-1,	9,	-1,	20,	29,	-1,	-1,	11,	37,	49,	36,	12,	-1,	47,	-1,	21,	-1,	46,	-1,	33,	8,	-1,	26,	-1,	31,	-1,	19,	38,	6,	25,	-1,	39,	-1,	15,	45,	44,	-1,	-1,	5,	-1,	-1|
-1,	16,	37,	-1,	-1,	35,	-1,	27,	39,	-1,	25,	47,	22,	6,	-1,	-1,	-1,	19,	-1,	14,	18,	23,	36,	24,	-1,	-1,	45,	-1,	-1,	34,	20,	12,	29,	-1,	-1,	-1,	10,	13,	-1,	-1,	-1,	-1,	-1,	21,	-1,	-1,	-1,	17,	30|
9,	41,	-1,	30,	36,	8,	-1,	-1,	-1,	-1,	-1,	-1,	2,	26,	-1,	31,	-1,	15,	34,	-1,	21,	-1,	13,	-1,	-1,	20,	12,	-1,	27,	-1,	-1,	-1,	-1,	-1,	17,	-1,	23,	-1,	-1,	-1,	-1,	-1,	-1,	37,	-1,	46,	-1,	-1,	3|
-1,	32,	-1,	-1,	-1,	-1,	-1,	33,	8,	45,	-1,	24,	5,	11,	40,	47,	23,	-1,	-1,	9,	22,	-1,	28,	-1,	-1,	14,	25,	18,	-1,	3,	21,	10,	41,	35,	13,	2,	-1,	29,	-1,	-1,	-1,	-1,	26,	39,	42,	43,	-1,	-1,	36|
-1,	-1,	1,	-1,	28,	-1,	44,	21,	42,	35,	7,	-1,	-1,	-1,	-1,	-1,	-1,	-1,	45,	-1,	-1,	-1,	31,	22,	34,	49,	-1,	32,	-1,	-1,	36,	6,	4,	-1,	43,	-1,	-1,	5,	12,	-1,	-1,	-1,	27,	-1,	19,	-1,	25,	8,	14|
-1,	-1,	-1,	-1,	7,	-1,	11,	32,	34,	-1,	-1,	-1,	-1,	14,	-1,	29,	-1,	35,	33,	-1,	30,	-1,	5,	-1,	-1,	17,	9,	-1,	1,	16,	-1,	-1,	49,	-1,	38,	-1,	21,	-1,	20,	-1,	41,	-1,	22,	-1,	31,	2,	6,	-1,	40|
12,	33,	-1,	49,	-1,	-1,	-1,	-1,	-1,	36,	-1,	-1,	23,	44,	-1,	27,	5,	-1,	-1,	28,	26,	-1,	-1,	11,	6,	-1,	40,	16,	-1,	-1,	-1,	-1,	14,	45,	-1,	1,	7,	-1,	30,	18,	-1,	-1,	-1,	13,	4,	-1,	41,	-1,	-1|
44,	-1,	-1,	-1,	46,	15,	22,	24,	13,	21,	-1,	-1,	-1,	7,	-1,	9,	-1,	-1,	37,	32,	-1,	31,	43,	-1,	-1,	28,	-1,	-1,	-1,	49,	-1,	47,	-1,	20,	35,	48,	-1,	-1,	25,	38,	-1,	-1,	-1,	-1,	3,	-1,	36,	-1,	29|
24,	30,	-1,	16,	23,	42,	1,	-1,	41,	12,	-1,	-1,	-1,	5,	25,	-1,	26,	-1,	29,	-1,	4,	-1,	47,	-1,	-1,	-1,	48,	2,	28,	-1,	32,	-1,	43,	-1,	-1,	-1,	-1,	15,	49,	3,	18,	34,	-1,	-1,	46,	-1,	33,	-1,	-1|
-1,	43,	-1,	10,	-1,	38,	-1,	-1,	-1,	-1,	-1,	29,	34,	37,	7,	-1,	30,	11,	-1,	23,	-1,	25,	-1,	-1,	14,	-1,	-1,	13,	-1,	26,	-1,	-1,	-1,	41,	31,	46,	-1,	-1,	-1,	-1,	32,	-1,	-1,	22,	9,	-1,	2,	-1,	16|
-1,	31,	-1,	25,	47,	-1,	-1,	4,	46,	-1,	27,	-1,	32,	-1,	18,	-1,	-1,	21,	-1,	-1,	-1,	6,	-1,	-1,	3,	-1,	-1,	-1,	19,	29,	-1,	48,	-1,	33,	-1,	-1,	-1,	-1,	-1,	-1,	-1,	26,	35,	42,	-1,	40,	11,	39,	-1|
-1,	-1,	-1,	-1,	45,	48,	28,	-1,	10,	3,	42,	25,	-1,	-1,	41,	49,	19,	31,	47,	20,	-1,	35,	-1,	-1,	-1,	40,	-1,	-1,	-1,	-1,	5,	-1,	46,	-1,	14,	-1,	9,	-1,	39,	2,	13,	33,	-1,	-1,	30,	-1,	-1,	-1,	37|
8,	-1,	-1,	41,	-1,	4,	36,	44,	-1,	-1,	-1,	30,	-1,	-1,	-1,	15,	39,	40,	43,	10,	1,	-1,	-1,	-1,	46,	-1,	-1,	-1,	18,	-1,	-1,	-1,	-1,	3,	-1,	-1,	-1,	22,	-1,	-1,	11,	-1,	-1,	-1,	14,	48,	28,	-1,	49|
29,	-1,	-1,	3,	-1,	39,	20,	-1,	9,	43,	36,	8,	40,	31,	-1,	48,	-1,	46,	-1,	38,	-1,	-1,	30,	33,	41,	23,	1,	44,	2,	45,	7,	11,	-1,	13,	4,	-1,	28,	47,	14,	-1,	-1,	21,	10,	34,	-1,	-1,	-1,	-1,	-1|
38,	-1,	13,	32,	41,	43,	-1,	-1,	14,	-1,	2,	22,	45,	-1,	12,	23,	10,	20,	-1,	34,	11,	8,	-1,	-1,	-1,	-1,	47,	-1,	-1,	-1,	37,	-1,	15,	-1,	6,	-1,	-1,	9,	26,	-1,	7,	-1,	-1,	-1,	39,	17,	-1,	28,	21|
-1,	-1,	-1,	-1,	-1,	-1,	37,	-1,	-1,	-1,	-1,	27,	21,	-1,	-1,	6,	-1,	-1,	25,	-1,	40,	-1,	-1,	-1,	-1,	-1,	-1,	-1,	22,	-1,	18,	7,	-1,	-1,	-1,	10,	-1,	-1,	34,	-1,	3,	31,	36,	-1,	-1,	13,	-1,	4,	9|
15,	36,	-1,	31,	-1,	-1,	26,	5,	7,	25,	4,	-1,	47,	-1,	-1,	-1,	8,	-1,	-1,	-1,	-1,	42,	-1,	-1,	35,	-1,	-1,	-1,	3,	-1,	-1,	-1,	-1,	-1,	32,	24,	41,	46,	-1,	-1,	-1,	-1,	20,	-1,	-1,	19,	45,	1,	10|
3,	17,	-1,	-1,	42,	47,	39,	26,	24,	40,	48,	-1,	-1,	-1,	-1,	38,	-1,	29,	-1,	37,	-1,	-1,	7,	-1,	18,	-1,	44,	-1,	-1,	-1,	1,	-1,	2,	25,	46,	21,	-1,	16,	8,	-1,	-1,	-1,	-1,	-1,	43,	-1,	22,	14,	15|
21,	-1,	-1,	-1,	-1,	-1,	-1,	9,	-1,	16,	-1,	37,	-1,	42,	-1,	24,	-1,	-1,	46,	26,	-1,	-1,	15,	-1,	-1,	12,	33,	-1,	-1,	-1,	-1,	-1,	-1,	-1,	-1,	-1,	14,	17,	47,	36,	20,	27,	34,	-1,	35,	3,	7,	2,	-1|
35,	-1,	23,	-1,	18,	19,	12,	-1,	-1,	-1,	8,	11,	13,	-1,	36,	-1,	3,	-1,	-1,	-1,	-1,	10,	4,	1,	9,	38,	-1,	14,	31,	-1,	-1,	-1,	40,	27,	16,	-1,	-1,	2,	22,	15,	-1,	30,	29,	-1,	25,	6,	-1,	-1,	-1|
48,	28,	-1,	-1,	-1,	-1,	34,	-1,	36,	39,	-1,	-1,	-1,	-1,	16,	-1,	-1,	30,	19,	27,	-1,	5,	3,	-1,	-1,	-1,	-1,	31,	-1,	-1,	-1,	-1,	47,	-1,	-1,	-1,	25,	-1,	32,	4,	-1,	43,	-1,	40,	-1,	42,	23,	46,	-1|
-1,	12,	-1,	-1,	-1,	18,	3,	-1,	15,	41,	-1,	-1,	42,	-1,	-1,	-1,	21,	-1,	-1,	-1,	-1,	1,	22,	4,	31,	10,	-1,	25,	13,	44,	14,	-1,	-1,	37,	29,	-1,	-1,	-1,	2,	-1,	-1,	19,	-1,	-1,	-1,	-1,	27,	-1,	-1|
28,	-1,	41,	-1,	43,	-1,	-1,	-1,	-1,	10,	-1,	35,	-1,	-1,	44,	-1,	-1,	4,	-1,	-1,	-1,	17,	-1,	-1,	21,	-1,	30,	37,	-1,	39,	-1,	-1,	5,	22,	-1,	-1,	12,	45,	11,	47,	-1,	20,	-1,	14,	-1,	36,	-1,	38,	-1|
-1,	6,	-1,	14,	25,	45,	5,	-1,	-1,	7,	-1,	9,	-1,	-1,	-1,	34,	24,	-1,	23,	-1,	36,	-1,	40,	-1,	11,	-1,	15,	49,	-1,	-1,	35,	-1,	-1,	-1,	10,	30,	17,	44,	43,	21,	33,	-1,	41,	-1,	-1,	-1,	-1,	-1,	-1|
42,	-1,	-1,	-1,	-1,	7,	48,	28,	-1,	-1,	21,	-1,	-1,	45,	-1,	-1,	49,	-1,	10,	29,	12,	-1,	39,	-1,	-1,	-1,	19,	35,	17,	15,	43,	-1,	27,	1,	-1,	31,	36,	-1,	-1,	-1,	25,	23,	11,	24,	44,	33,	-1,	16,	47|
17,	-1,	-1,	-1,	-1,	-1,	21,	-1,	31,	-1,	6,	-1,	25,	19,	-1,	-1,	-1,	7,	-1,	42,	9,	-1,	-1,	18,	-1,	-1,	-1,	47,	23,	32,	4,	26,	-1,	38,	-1,	-1,	-1,	-1,	3,	35,	16,	-1,	-1,	-1,	-1,	22,	20,	-1,	46|
19,	39,	31,	47,	-1,	29,	35,	36,	-1,	-1,	22,	-1,	17,	-1,	-1,	20,	40,	37,	-1,	25,	38,	-1,	2,	-1,	-1,	-1,	-1,	28,	-1,	-1,	11,	21,	-1,	-1,	49,	-1,	-1,	-1,	41,	-1,	10,	13,	-1,	7,	26,	30,	18,	3,	-1|
-1,	-1,	44,	23,	-1,	33,	40,	43,	49,	32,	13,	38,	-1,	-1,	-1,	-1,	-1,	45,	41,	2,	27,	36,	12,	-1,	26,	-1,	-1,	-1,	34,	-1,	-1,	-1,	3,	47,	25,	15,	-1,	7,	1,	-1,	-1,	18,	-1,	-1,	6,	31,	21,	10,	-1|
27,	46,	-1,	45,	8,	-1,	-1,	41,	-1,	14,	43,	-1,	-1,	15,	-1,	16,	47,	-1,	-1,	44,	3,	21,	10,	35,	-1,	-1,	11,	-1,	38,	13,	-1,	-1,	-1,	-1,	18,	23,	-1,	-1,	9,	-1,	31,	39,	19,	-1,	37,	20,	17,	-1,	-1|
30,	48,	-1,	9,	-1,	-1,	-1,	16,	35,	38,	44,	-1,	-1,	-1,	29,	1,	-1,	27,	21,	-1,	37,	19,	17,	-1,	-1,	-1,	31,	45,	-1,	-1,	-1,	41,	-1,	-1,	-1,	13,	24,	-1,	-1,	7,	8,	-1,	-1,	-1,	-1,	-1,	-1,	36,	22|
13,	-1,	-1,	-1,	-1,	41,	-1,	-1,	27,	22,	49,	-1,	-1,	1,	-1,	-1,	6,	39,	-1,	-1,	2,	43,	23,	9,	16,	15,	26,	5,	25,	-1,	31,	-1,	-1,	7,	-1,	-1,	48,	36,	-1,	-1,	-1,	11,	-1,	-1,	-1,	-1,	12,	-1,	35|
-1,	22,	-1,	-1,	11,	-1,	-1,	48,	-1,	17,	-1,	2,	-1,	-1,	30,	-1,	-1,	23,	-1,	-1,	13,	29,	-1,	-1,	-1,	47,	20,	-1,	40,	19,	44,	16,	-1,	14,	26,	28,	-1,	43,	4,	32,	-1,	12,	-1,	1,	-1,	-1,	49,	-1,	27|
20,	2,	7,	28,	-1,	31,	-1,	-1,	19,	23,	-1,	46,	-1,	-1,	33,	-1,	-1,	26,	17,	11,	35,	34,	6,	-1,	40,	-1,	-1,	39,	-1,	12,	49,	-1,	45,	29,	42,	14,	22,	-1,	-1,	44,	-1,	-1,	-1,	-1,	-1,	4,	3,	41,	32|
25,	14,	16,	33,	-1,	3,	23,	-1,	-1,	6,	5,	42,	-1,	-1,	9,	-1,	-1,	10,	40,	22,	49,	32,	24,	2,	-1,	44,	13,	-1,	-1,	4,	-1,	-1,	30,	28,	-1,	17,	-1,	1,	21,	26,	38,	-1,	-1,	-1,	48,	47,	39,	45,	-1|
-1,	-1,	19,	1,	4,	-1,	-1,	3,	11,	-1,	26,	32,	20,	36,	-1,	25,	-1,	12,	18,	-1,	45,	-1,	-1,	14,	-1,	-1,	42,	-1,	21,	6,	22,	46,	-1,	-1,	9,	-1,	-1,	49,	10,	-1,	34,	2,	-1,	-1,	7,	16,	30,	-1,	-1|
-1,	-1,	-1,	-1,	-1,	27,	-1,	-1,	43,	-1,	34,	-1,	39,	-1,	31,	-1,	-1,	17,	24,	40,	-1,	-1,	18,	-1,	-1,	6,	-1,	-1,	-1,	-1,	-1,	14,	-1,	11,	-1,	-1,	2,	-1,	35,	30,	-1,	-1,	-1,	-1,	-1,	-1,	-1,	37,	44|
23,	-1,	46,	44,	-1,	-1,	8,	22,	1,	29,	-1,	36,	-1,	20,	-1,	4,	-1,	18,	-1,	19,	-1,	45,	42,	-1,	15,	-1,	34,	-1,	39,	-1,	-1,	32,	-1,	43,	-1,	41,	13,	-1,	-1,	-1,	-1,	9,	3,	-1,	-1,	49,	-1,	-1,	38|
18,	-1,	48,	-1,	-1,	37,	30,	17,	-1,	44,	16,	-1,	46,	-1,	11,	-1,	-1,	-1,	3,	8,	14,	-1,	-1,	28,	-1,	-1,	-1,	20,	24,	22,	29,	25,	-1,	-1,	-1,	-1,	-1,	27,	7,	-1,	-1,	32,	-1,	-1,	-1,	35,	31,	6,	-1|
16,	42,	45,	-1,	-1,	17,	-1,	47,	-1,	-1,	-1,	-1,	-1,	13,	-1,	10,	-1,	-1,	-1,	-1,	-1,	9,	-1,	31,	-1,	24,	-1,	40,	-1,	1,	-1,	-1,	-1,	-1,	-1,	-1,	-1,	-1,	44,	-1,	-1,	-1,	12,	11,	23,	-1,	-1,	-1,	5|
41,	-1,	-1,	-1,	33,	34,	38,	-1,	-1,	42,	-1,	6,	24,	-1,	39,	13,	-1,	47,	44,	-1,	25,	-1,	-1,	43,	49,	-1,	-1,	21,	35,	46,	48,	-1,	7,	-1,	-1,	19,	-1,	-1,	-1,	23,	-1,	16,	-1,	9,	-1,	-1,	-1,	-1,	-1|
-1,	-1,	25,	2,	-1,	-1,	32,	-1,	-1,	-1,	19,	40,	27,	9,	-1,	-1,	12,	-1,	42,	48,	7,	44,	-1,	23,	13,	-1,	-1,	-1,	26,	8,	3,	-1,	18,	31,	-1,	22,	-1,	-1,	-1,	49,	39,	-1,	-1,	20,	47,	-1,	-1,	-1,	24|
-1,	-1,	12,	36,	-1,	-1,	-1,	31,	-1,	-1,	-1,	41,	3,	25,	-1,	-1,	2,	32,	6,	-1,	43,	-1,	14,	46,	-1,	27,	29,	26,	44,	42,	-1,	45,	-1,	-1,	-1,	-1,	40,	20,	48,	17,	47,	-1,	39,	-1,	22,	28,	-1,	-1,	-1|];
