sudoku-ls/benchmarks_LEQ/INST_49x49/50/inst49x49_50_73.txt
7
1
-1	-1	8	48	-1	-1	49	-1	-1	5	-1	-1	-1	-1	-1	46	7	-1	-1	3	16	-1	-1	13	-1	30	2	4	37	-1	39	19	-1	-1	-1	11	44	14	-1	25	-1	-1	24	-1	20	15	29	-1	33
7	-1	14	-1	16	28	-1	15	26	-1	-1	-1	-1	-1	-1	35	-1	48	9	-1	33	-1	8	-1	27	-1	32	24	-1	-1	-1	43	13	34	40	12	38	42	-1	-1	-1	-1	-1	6	5	-1	4	-1	1
-1	24	-1	6	27	9	-1	18	25	-1	-1	-1	-1	17	-1	21	42	43	-1	-1	34	33	38	5	7	-1	49	-1	-1	2	28	-1	22	4	1	20	-1	-1	13	31	15	40	47	-1	-1	23	16	-1	-1
37	-1	-1	42	5	-1	-1	20	22	48	-1	16	43	32	38	-1	-1	24	-1	-1	-1	11	-1	-1	12	-1	21	-1	14	-1	-1	-1	-1	-1	-1	29	-1	-1	-1	-1	35	-1	-1	36	17	-1	19	-1	-1
-1	34	-1	22	-1	36	-1	-1	-1	24	33	-1	-1	21	6	-1	-1	-1	-1	-1	-1	-1	16	-1	-1	-1	-1	1	-1	-1	38	-1	-1	-1	-1	-1	32	-1	45	41	28	-1	-1	-1	-1	37	-1	26	-1
33	-1	3	17	-1	-1	-1	35	6	-1	29	-1	-1	-1	37	-1	-1	14	32	-1	-1	41	-1	-1	-1	-1	-1	48	49	-1	47	5	-1	-1	30	34	26	-1	23	16	-1	-1	-1	-1	21	-1	9	-1	-1
4	20	11	18	-1	-1	-1	42	45	28	37	13	7	27	-1	8	1	-1	12	30	-1	15	-1	-1	-1	-1	-1	-1	32	25	-1	36	26	48	24	-1	33	10	17	5	-1	-1	2	3	-1	38	-1	-1	-1
34	-1	27	24	48	-1	-1	13	30	-1	41	20	-1	4	43	-1	-1	-1	-1	-1	-1	47	-1	-1	-1	-1	-1	33	8	7	-1	2	-1	-1	19	-1	-1	25	42	-1	-1	15	-1	44	16	-1	5	-1	28
5	16	-1	43	-1	35	-1	-1	39	1	25	-1	-1	6	-1	-1	44	19	-1	14	18	23	36	-1	2	-1	-1	-1	33	-1	-1	12	29	-1	11	-1	10	13	31	-1	46	-1	-1	21	49	32	15	17	30
-1	41	18	30	-1	8	-1	-1	16	-1	40	19	-1	-1	-1	31	4	15	-1	6	-1	39	13	-1	-1	-1	12	42	27	-1	25	-1	-1	44	17	43	23	-1	-1	-1	-1	-1	7	37	1	-1	10	24	3
-1	-1	38	-1	-1	-1	-1	33	-1	-1	12	24	5	-1	40	47	-1	1	16	-1	-1	-1	-1	-1	-1	14	-1	-1	30	-1	-1	10	41	-1	13	-1	27	29	19	34	-1	-1	-1	39	-1	-1	-1	20	-1
10	29	1	-1	28	-1	44	-1	42	35	-1	-1	-1	18	-1	-1	46	38	45	13	-1	30	-1	22	34	-1	-1	32	9	23	-1	-1	-1	24	43	16	47	-1	12	-1	37	-1	-1	33	19	-1	-1	8	-1
-1	23	-1	19	-1	-1	-1	32	34	-1	3	43	-1	-1	-1	-1	-1	35	33	24	-1	26	-1	-1	-1	-1	-1	27	-1	-1	-1	15	-1	-1	38	-1	-1	-1	-1	-1	41	4	22	-1	-1	-1	-1	-1	-1
12	33	15	-1	21	25	-1	10	-1	36	46	31	23	44	3	-1	5	-1	-1	28	-1	-1	-1	11	6	-1	-1	16	-1	-1	-1	-1	-1	45	-1	-1	-1	32	-1	18	-1	24	9	-1	4	29	-1	-1	34
44	5	-1	12	46	-1	-1	24	13	-1	23	26	-1	-1	-1	-1	34	-1	-1	-1	-1	31	43	-1	39	28	-1	-1	-1	-1	17	47	-1	20	-1	-1	-1	-1	25	-1	30	10	-1	45	-1	-1	-1	-1	29
24	-1	-1	16	23	-1	1	-1	41	12	39	17	-1	5	-1	14	-1	13	29	-1	4	-1	47	19	-1	7	-1	-1	28	40	32	44	-1	10	37	-1	-1	-1	-1	3	-1	-1	-1	31	46	27	33	-1	-1
-1	-1	-1	10	-1	38	-1	-1	-1	18	45	-1	-1	-1	-1	-1	-1	11	-1	23	-1	-1	49	12	14	-1	-1	13	-1	26	15	39	21	41	-1	-1	4	19	5	20	-1	-1	44	-1	9	-1	-1	-1	-1
-1	31	-1	-1	47	49	-1	-1	-1	20	-1	-1	-1	-1	18	12	45	21	5	16	8	-1	9	37	3	34	10	-1	19	-1	30	48	-1	33	22	44	1	41	-1	-1	23	-1	35	-1	24	40	11	-1	13
11	-1	-1	34	-1	48	28	6	10	-1	42	-1	15	22	41	-1	-1	-1	47	20	44	35	26	-1	32	40	-1	-1	-1	-1	5	-1	-1	-1	-1	-1	9	12	39	-1	13	-1	-1	23	-1	1	-1	-1	-1
-1	13	26	41	-1	-1	36	-1	33	-1	-1	-1	19	-1	-1	15	39	-1	43	10	1	-1	-1	20	-1	5	-1	-1	18	9	12	34	-1	-1	23	27	31	-1	-1	-1	-1	-1	-1	-1	14	-1	28	-1	-1
-1	-1	32	3	19	-1	-1	49	9	-1	-1	-1	-1	31	-1	48	-1	46	35	-1	-1	-1	-1	-1	41	-1	-1	-1	2	-1	-1	-1	25	13	4	-1	28	-1	14	-1	-1	-1	-1	-1	-1	-1	26	-1	12
38	4	-1	-1	41	-1	16	-1	-1	-1	-1	22	45	3	12	23	-1	-1	1	34	11	8	-1	-1	24	36	47	19	5	-1	37	49	-1	30	-1	-1	42	-1	-1	-1	-1	48	33	18	-1	-1	44	28	21
-1	44	5	-1	-1	-1	37	19	-1	15	-1	-1	21	30	-1	6	-1	42	-1	-1	40	2	29	-1	28	-1	16	43	22	14	18	7	11	-1	-1	10	39	23	-1	12	-1	31	36	-1	38	13	-1	-1	-1
15	-1	-1	31	30	14	26	-1	-1	25	-1	18	47	29	-1	43	8	2	-1	-1	-1	42	37	17	-1	-1	-1	-1	3	28	34	33	-1	-1	-1	-1	-1	46	-1	-1	-1	6	20	-1	27	-1	45	1	-1
3	-1	33	-1	42	-1	39	26	24	40	-1	23	-1	35	-1	38	9	-1	31	37	32	-1	7	-1	-1	13	-1	34	10	-1	-1	20	2	-1	-1	21	11	16	8	28	19	45	30	-1	-1	12	-1	-1	15
21	-1	-1	-1	29	-1	-1	9	32	-1	38	-1	-1	42	28	24	13	5	-1	-1	-1	48	15	-1	-1	12	33	22	-1	-1	-1	8	39	19	-1	18	-1	-1	47	-1	-1	27	-1	49	35	3	7	-1	-1
-1	-1	-1	-1	18	-1	12	-1	-1	-1	8	11	13	43	36	7	3	-1	-1	47	17	10	-1	1	-1	-1	46	14	-1	-1	-1	-1	-1	-1	-1	-1	49	2	-1	15	5	30	-1	32	25	6	-1	48	26
-1	28	22	7	9	2	-1	12	36	-1	17	-1	-1	41	-1	18	-1	30	19	-1	15	5	-1	-1	20	21	-1	-1	-1	38	-1	13	-1	26	44	-1	-1	35	32	4	1	-1	37	-1	-1	42	-1	-1	8
-1	-1	24	46	-1	-1	-1	8	15	-1	-1	33	42	23	-1	28	-1	-1	-1	43	47	-1	22	4	-1	10	-1	-1	-1	-1	14	40	-1	37	29	-1	34	-1	2	6	-1	-1	49	-1	-1	9	-1	-1	-1
-1	49	41	13	43	16	27	2	3	10	-1	35	-1	46	44	26	-1	4	-1	-1	-1	17	-1	34	21	-1	-1	-1	7	39	-1	18	5	22	8	42	12	-1	11	47	-1	20	-1	14	-1	-1	-1	-1	-1
32	6	-1	14	25	45	5	37	-1	7	20	9	26	47	1	34	-1	3	23	18	36	-1	-1	-1	11	-1	15	49	-1	-1	35	-1	-1	-1	-1	-1	17	-1	-1	21	33	-1	-1	-1	28	39	13	42	-1
-1	-1	34	-1	2	-1	48	-1	-1	4	-1	-1	-1	-1	13	22	-1	-1	-1	-1	-1	-1	-1	-1	5	-1	19	-1	17	15	43	9	27	1	-1	-1	36	-1	40	-1	-1	23	-1	-1	-1	-1	-1	16	-1
-1	11	10	37	-1	30	-1	40	-1	27	-1	-1	25	19	-1	-1	-1	-1	-1	-1	-1	13	-1	18	-1	45	-1	-1	-1	32	-1	-1	-1	-1	36	49	-1	28	3	35	-1	-1	1	-1	-1	22	-1	-1	-1
-1	-1	31	-1	1	29	35	36	44	34	22	-1	-1	12	46	20	-1	37	8	-1	38	14	-1	6	-1	-1	24	28	-1	33	-1	-1	-1	16	49	32	5	-1	-1	-1	10	-1	-1	-1	26	-1	18	3	43
-1	9	44	23	-1	-1	40	43	-1	32	-1	38	-1	39	-1	17	11	45	41	-1	-1	36	-1	-1	26	-1	-1	46	34	-1	-1	28	3	47	-1	-1	-1	-1	-1	24	14	-1	48	-1	6	31	-1	-1	-1
-1	46	49	-1	-1	-1	24	41	40	14	-1	7	33	15	34	16	-1	-1	-1	-1	-1	-1	-1	35	-1	48	11	-1	-1	13	-1	-1	-1	-1	18	-1	-1	30	9	42	31	-1	-1	-1	37	20	-1	-1	6
30	48	-1	9	-1	-1	-1	16	-1	38	44	-1	-1	28	-1	1	20	27	21	15	-1	19	-1	-1	-1	-1	31	-1	11	10	33	-1	-1	-1	47	13	24	3	46	7	-1	25	5	-1	-1	14	42	-1	22
-1	38	42	21	44	-1	29	-1	-1	-1	-1	45	4	1	-1	-1	6	-1	-1	46	-1	-1	-1	9	-1	-1	-1	5	-1	20	-1	17	34	7	3	-1	-1	36	37	19	-1	-1	-1	-1	-1	-1	-1	18	35
39	-1	-1	-1	-1	-1	18	48	-1	-1	10	-1	-1	-1	30	-1	41	23	38	7	13	29	46	25	-1	-1	20	-1	40	-1	44	16	-1	14	26	28	-1	43	-1	-1	6	12	-1	-1	15	34	49	9	27
-1	2	-1	-1	10	31	15	-1	-1	-1	-1	-1	9	8	-1	36	48	-1	17	11	35	-1	-1	30	-1	1	37	-1	-1	12	-1	-1	45	29	42	14	22	-1	16	-1	27	-1	-1	-1	13	4	3	41	32
25	14	16	-1	-1	3	-1	-1	-1	-1	5	-1	18	-1	-1	19	-1	10	-1	22	49	32	-1	-1	36	44	13	-1	15	-1	-1	35	-1	28	-1	17	20	1	-1	-1	38	41	-1	46	48	-1	-1	45	-1
47	-1	19	-1	4	-1	-1	3	11	13	26	32	-1	36	-1	-1	-1	-1	18	5	45	-1	-1	-1	-1	-1	-1	41	21	6	22	-1	-1	-1	9	-1	15	-1	-1	-1	-1	2	-1	-1	7	16	30	-1	23
-1	-1	28	-1	-1	27	9	-1	43	-1	34	12	-1	48	-1	-1	29	-1	24	-1	-1	-1	-1	-1	19	6	5	-1	-1	41	13	14	-1	-1	-1	-1	-1	-1	35	-1	42	-1	46	-1	-1	-1	-1	37	-1
23	47	-1	-1	31	-1	8	22	1	-1	28	36	35	20	-1	4	16	18	27	19	5	45	-1	7	15	25	-1	30	-1	-1	-1	-1	17	-1	2	41	13	-1	-1	11	-1	-1	3	-1	10	-1	14	33	38
-1	-1	48	-1	13	37	30	17	-1	44	-1	49	46	-1	11	45	-1	-1	3	-1	14	12	1	28	47	-1	36	-1	24	-1	-1	25	23	21	34	4	-1	27	7	10	26	-1	42	-1	-1	35	31	6	2
-1	42	-1	29	-1	-1	4	47	-1	-1	-1	-1	37	13	20	10	22	-1	49	41	46	-1	-1	-1	48	-1	35	-1	6	-1	-1	-1	-1	15	-1	-1	3	-1	44	-1	-1	14	-1	-1	23	7	-1	-1	-1
41	3	20	-1	-1	34	-1	14	4	-1	-1	-1	24	10	-1	13	28	47	44	-1	25	37	-1	43	49	-1	-1	-1	-1	46	-1	30	-1	36	-1	-1	-1	31	-1	-1	29	16	40	9	-1	-1	8	27	-1
43	-1	-1	2	-1	-1	32	45	-1	11	-1	-1	27	9	15	30	-1	36	42	-1	-1	-1	33	23	13	-1	17	10	-1	8	3	-1	-1	31	-1	-1	-1	-1	-1	-1	-1	-1	-1	20	-1	-1	1	-1	24
-1	-1	12	-1	-1	11	-1	-1	-1	-1	15	41	3	-1	-1	-1	-1	-1	6	-1	-1	4	14	46	-1	27	29	-1	-1	42	9	-1	16	-1	-1	5	-1	20	48	-1	47	-1	-1	19	22	28	-1	13	-1
49 
29 22 23 11
43 37 16 28
19 10 9 5
11 4 4 20
29 48 10 30
7 28 16 43
47 33 35 38
17 46 46 40
33 21 5 34
31 35 13 25
43 34 32 43
1 9 5 29
13 6 35 11
25 48 42 24
30 19 18 28
21 22 7 31
49 40 36 47
6 17 32 9
47 36 5 7
16 49 26 41
11 31 13 37
1 18 21 15
28 47 1 8
20 22 17 21
13 17 11 27
9 36 43 2
31 22 46 31
48 39 30 1
37 15 22 40
46 48 29 19
22 10 33 9
3 48 22 4
23 20 45 14
21 44 48 38
7 47 42 36
46 41 37 48
3 38 49 16
45 17 14 22
48 41 43 13
9 34 30 47
7 18 3 29
17 26 44 23
11 46 40 29
31 38 13 24
34 29 39 37
40 12 20 25
2 42 41 46
11 47 24 21
14 4 49 34
